1600 3200
1 2 5
1 41 2
2 3 4
2 42 1
3 4 4
3 43 5
4 5 1
4 44 3
5 6 3
5 45 1
6 7 3
6 46 3
7 8 1
7 47 2
8 9 3
8 48 3
9 10 2
9 49 5
10 11 5
10 50 4
11 12 5
11 51 5
12 13 1
12 52 5
13 14 3
13 53 1
14 15 1
14 54 3
15 16 1
15 55 5
16 17 5
16 56 2
17 18 4
17 57 5
18 19 4
18 58 4
19 20 2
19 59 2
20 21 5
20 60 3
21 22 5
21 61 2
22 23 5
22 62 5
23 24 5
23 63 2
24 25 3
24 64 1
25 26 2
25 65 2
26 27 3
26 66 4
27 28 3
27 67 2
28 29 5
28 68 2
29 30 2
29 69 4
30 31 5
30 70 4
31 32 2
31 71 2
32 33 5
32 72 2
33 34 2
33 73 3
34 35 4
34 74 3
35 36 4
35 75 2
36 37 4
36 76 4
37 38 2
37 77 1
38 39 2
38 78 2
39 40 5
39 79 5
40 80 3
41 42 2
41 81 4
42 43 4
42 82 1
43 44 5
43 83 5
44 45 2
44 84 2
45 46 2
45 85 5
46 47 5
46 86 3
47 48 4
47 87 5
48 49 5
48 88 2
49 50 5
49 89 1
50 51 1
50 90 2
51 52 3
51 91 3
52 53 5
52 92 2
53 54 5
53 93 3
54 55 2
54 94 4
55 56 5
55 95 4
56 57 2
56 96 1
57 58 1
57 97 4
58 59 2
58 98 4
59 60 5
59 99 5
60 61 2
60 100 2
61 62 5
61 101 5
62 63 3
62 102 5
63 64 2
63 103 4
64 65 5
64 104 5
65 66 2
65 105 3
66 67 3
66 106 3
67 68 3
67 107 4
68 69 2
68 108 2
69 70 2
69 109 2
70 71 2
70 110 1
71 72 3
71 111 1
72 73 4
72 112 3
73 74 1
73 113 5
74 75 1
74 114 3
75 76 3
75 115 5
76 77 1
76 116 3
77 78 3
77 117 4
78 79 1
78 118 5
79 80 2
79 119 1
80 120 5
81 82 1
81 121 1
82 83 5
82 122 2
83 84 3
83 123 2
84 85 2
84 124 4
85 86 5
85 125 5
86 87 4
86 126 4
87 88 1
87 127 2
88 89 4
88 128 4
89 90 1
89 129 1
90 91 4
90 130 1
91 92 4
91 131 3
92 93 4
92 132 2
93 94 1
93 133 4
94 95 2
94 134 1
95 96 3
95 135 2
96 97 3
96 136 4
97 98 4
97 137 2
98 99 1
98 138 1
99 100 1
99 139 4
100 101 3
100 140 5
101 102 3
101 141 2
102 103 2
102 142 1
103 104 3
103 143 1
104 105 2
104 144 4
105 106 1
105 145 1
106 107 2
106 146 5
107 108 4
107 147 1
108 109 3
108 148 3
109 110 1
109 149 5
110 111 3
110 150 5
111 112 2
111 151 2
112 113 4
112 152 4
113 114 3
113 153 1
114 115 3
114 154 2
115 116 4
115 155 4
116 117 3
116 156 3
117 118 4
117 157 5
118 119 4
118 158 1
119 120 1
119 159 5
120 160 4
121 122 4
121 161 4
122 123 1
122 162 3
123 124 4
123 163 5
124 125 2
124 164 4
125 126 1
125 165 5
126 127 1
126 166 5
127 128 4
127 167 2
128 129 1
128 168 2
129 130 1
129 169 2
130 131 2
130 170 3
131 132 1
131 171 3
132 133 2
132 172 1
133 134 2
133 173 1
134 135 2
134 174 2
135 136 3
135 175 1
136 137 4
136 176 5
137 138 4
137 177 1
138 139 5
138 178 1
139 140 2
139 179 2
140 141 2
140 180 2
141 142 3
141 181 4
142 143 4
142 182 1
143 144 4
143 183 3
144 145 1
144 184 2
145 146 4
145 185 3
146 147 2
146 186 4
147 148 5
147 187 5
148 149 5
148 188 1
149 150 5
149 189 2
150 151 2
150 190 4
151 152 5
151 191 1
152 153 4
152 192 4
153 154 3
153 193 3
154 155 1
154 194 4
155 156 1
155 195 3
156 157 3
156 196 3
157 158 5
157 197 2
158 159 2
158 198 3
159 160 1
159 199 2
160 200 1
161 162 2
161 201 1
162 163 1
162 202 1
163 164 3
163 203 5
164 165 1
164 204 5
165 166 3
165 205 3
166 167 1
166 206 4
167 168 1
167 207 5
168 169 3
168 208 3
169 170 1
169 209 1
170 171 2
170 210 5
171 172 5
171 211 5
172 173 1
172 212 1
173 174 2
173 213 4
174 175 1
174 214 1
175 176 4
175 215 3
176 177 5
176 216 4
177 178 1
177 217 3
178 179 2
178 218 4
179 180 2
179 219 2
180 181 3
180 220 1
181 182 5
181 221 5
182 183 1
182 222 2
183 184 1
183 223 1
184 185 3
184 224 3
185 186 4
185 225 1
186 187 2
186 226 3
187 188 2
187 227 4
188 189 2
188 228 1
189 190 5
189 229 3
190 191 3
190 230 5
191 192 4
191 231 3
192 193 3
192 232 3
193 194 3
193 233 5
194 195 1
194 234 5
195 196 4
195 235 1
196 197 3
196 236 3
197 198 2
197 237 2
198 199 1
198 238 3
199 200 5
199 239 4
200 240 5
201 202 3
201 241 1
202 203 4
202 242 1
203 204 5
203 243 5
204 205 4
204 244 1
205 206 2
205 245 4
206 207 5
206 246 4
207 208 4
207 247 5
208 209 5
208 248 4
209 210 1
209 249 4
210 211 3
210 250 1
211 212 1
211 251 2
212 213 4
212 252 4
213 214 4
213 253 1
214 215 3
214 254 5
215 216 5
215 255 4
216 217 2
216 256 3
217 218 4
217 257 1
218 219 1
218 258 3
219 220 1
219 259 4
220 221 5
220 260 3
221 222 5
221 261 1
222 223 1
222 262 4
223 224 2
223 263 3
224 225 1
224 264 4
225 226 4
225 265 5
226 227 1
226 266 3
227 228 5
227 267 3
228 229 1
228 268 1
229 230 4
229 269 5
230 231 5
230 270 3
231 232 4
231 271 3
232 233 3
232 272 4
233 234 5
233 273 5
234 235 3
234 274 1
235 236 3
235 275 3
236 237 4
236 276 5
237 238 2
237 277 2
238 239 2
238 278 1
239 240 1
239 279 5
240 280 5
241 242 3
241 281 2
242 243 5
242 282 3
243 244 4
243 283 5
244 245 1
244 284 2
245 246 3
245 285 3
246 247 1
246 286 2
247 248 4
247 287 5
248 249 3
248 288 3
249 250 2
249 289 3
250 251 2
250 290 4
251 252 5
251 291 3
252 253 2
252 292 1
253 254 2
253 293 5
254 255 1
254 294 1
255 256 4
255 295 5
256 257 4
256 296 5
257 258 4
257 297 4
258 259 1
258 298 2
259 260 1
259 299 4
260 261 2
260 300 4
261 262 1
261 301 1
262 263 4
262 302 5
263 264 4
263 303 5
264 265 1
264 304 4
265 266 4
265 305 2
266 267 1
266 306 5
267 268 3
267 307 3
268 269 3
268 308 5
269 270 1
269 309 4
270 271 1
270 310 1
271 272 5
271 311 1
272 273 5
272 312 3
273 274 2
273 313 5
274 275 4
274 314 2
275 276 3
275 315 5
276 277 3
276 316 4
277 278 2
277 317 2
278 279 2
278 318 5
279 280 1
279 319 2
280 320 3
281 282 4
281 321 1
282 283 4
282 322 4
283 284 3
283 323 1
284 285 4
284 324 1
285 286 4
285 325 1
286 287 3
286 326 5
287 288 3
287 327 5
288 289 4
288 328 4
289 290 1
289 329 1
290 291 2
290 330 2
291 292 3
291 331 1
292 293 2
292 332 5
293 294 4
293 333 5
294 295 1
294 334 1
295 296 2
295 335 1
296 297 2
296 336 5
297 298 4
297 337 4
298 299 3
298 338 2
299 300 1
299 339 3
300 301 1
300 340 5
301 302 5
301 341 5
302 303 1
302 342 2
303 304 4
303 343 5
304 305 2
304 344 4
305 306 2
305 345 4
306 307 3
306 346 5
307 308 2
307 347 1
308 309 3
308 348 3
309 310 1
309 349 4
310 311 2
310 350 1
311 312 2
311 351 3
312 313 3
312 352 3
313 314 4
313 353 4
314 315 5
314 354 1
315 316 1
315 355 3
316 317 5
316 356 5
317 318 1
317 357 4
318 319 3
318 358 1
319 320 4
319 359 4
320 360 4
321 322 1
321 361 4
322 323 3
322 362 5
323 324 5
323 363 5
324 325 2
324 364 1
325 326 2
325 365 4
326 327 2
326 366 1
327 328 2
327 367 5
328 329 3
328 368 4
329 330 1
329 369 3
330 331 1
330 370 5
331 332 1
331 371 1
332 333 3
332 372 4
333 334 3
333 373 4
334 335 1
334 374 2
335 336 5
335 375 3
336 337 1
336 376 1
337 338 1
337 377 4
338 339 2
338 378 4
339 340 3
339 379 5
340 341 5
340 380 3
341 342 2
341 381 5
342 343 4
342 382 4
343 344 3
343 383 5
344 345 3
344 384 3
345 346 1
345 385 2
346 347 5
346 386 2
347 348 2
347 387 3
348 349 2
348 388 4
349 350 4
349 389 3
350 351 5
350 390 3
351 352 5
351 391 3
352 353 5
352 392 1
353 354 1
353 393 1
354 355 4
354 394 5
355 356 5
355 395 5
356 357 3
356 396 2
357 358 5
357 397 4
358 359 4
358 398 5
359 360 4
359 399 2
360 400 1
361 362 4
361 401 5
362 363 4
362 402 5
363 364 2
363 403 2
364 365 2
364 404 2
365 366 1
365 405 4
366 367 3
366 406 2
367 368 3
367 407 4
368 369 2
368 408 4
369 370 1
369 409 1
370 371 4
370 410 1
371 372 4
371 411 5
372 373 3
372 412 3
373 374 1
373 413 3
374 375 1
374 414 5
375 376 2
375 415 3
376 377 2
376 416 5
377 378 1
377 417 2
378 379 5
378 418 4
379 380 5
379 419 5
380 381 1
380 420 3
381 382 1
381 421 4
382 383 2
382 422 2
383 384 4
383 423 2
384 385 2
384 424 1
385 386 3
385 425 4
386 387 1
386 426 5
387 388 4
387 427 3
388 389 5
388 428 1
389 390 5
389 429 2
390 391 2
390 430 2
391 392 5
391 431 2
392 393 5
392 432 2
393 394 1
393 433 3
394 395 3
394 434 5
395 396 5
395 435 3
396 397 5
396 436 3
397 398 1
397 437 3
398 399 1
398 438 5
399 400 4
399 439 3
400 440 1
401 402 4
401 441 5
402 403 4
402 442 4
403 404 4
403 443 5
404 405 3
404 444 2
405 406 4
405 445 5
406 407 1
406 446 2
407 408 1
407 447 1
408 409 1
408 448 1
409 410 5
409 449 3
410 411 2
410 450 3
411 412 3
411 451 2
412 413 3
412 452 3
413 414 1
413 453 5
414 415 1
414 454 5
415 416 3
415 455 5
416 417 1
416 456 1
417 418 5
417 457 5
418 419 4
418 458 1
419 420 5
419 459 5
420 421 4
420 460 1
421 422 5
421 461 1
422 423 4
422 462 3
423 424 4
423 463 2
424 425 1
424 464 4
425 426 3
425 465 2
426 427 4
426 466 5
427 428 2
427 467 4
428 429 1
428 468 1
429 430 5
429 469 1
430 431 5
430 470 4
431 432 2
431 471 4
432 433 2
432 472 3
433 434 1
433 473 3
434 435 3
434 474 4
435 436 2
435 475 3
436 437 3
436 476 4
437 438 4
437 477 5
438 439 5
438 478 5
439 440 3
439 479 4
440 480 1
441 442 1
441 481 2
442 443 2
442 482 5
443 444 5
443 483 2
444 445 3
444 484 1
445 446 3
445 485 5
446 447 5
446 486 4
447 448 5
447 487 2
448 449 1
448 488 1
449 450 1
449 489 5
450 451 4
450 490 2
451 452 1
451 491 1
452 453 2
452 492 3
453 454 4
453 493 1
454 455 3
454 494 4
455 456 3
455 495 2
456 457 2
456 496 3
457 458 3
457 497 2
458 459 3
458 498 4
459 460 4
459 499 5
460 461 2
460 500 4
461 462 4
461 501 2
462 463 4
462 502 3
463 464 3
463 503 5
464 465 2
464 504 3
465 466 2
465 505 3
466 467 1
466 506 4
467 468 5
467 507 1
468 469 1
468 508 5
469 470 3
469 509 2
470 471 1
470 510 4
471 472 5
471 511 3
472 473 3
472 512 2
473 474 3
473 513 3
474 475 4
474 514 5
475 476 2
475 515 1
476 477 3
476 516 1
477 478 3
477 517 1
478 479 3
478 518 3
479 480 3
479 519 2
480 520 1
481 482 2
481 521 1
482 483 5
482 522 4
483 484 3
483 523 4
484 485 5
484 524 2
485 486 4
485 525 2
486 487 4
486 526 5
487 488 3
487 527 1
488 489 3
488 528 5
489 490 5
489 529 5
490 491 4
490 530 1
491 492 1
491 531 2
492 493 3
492 532 2
493 494 2
493 533 5
494 495 3
494 534 3
495 496 3
495 535 5
496 497 2
496 536 5
497 498 3
497 537 3
498 499 1
498 538 4
499 500 5
499 539 4
500 501 1
500 540 4
501 502 2
501 541 3
502 503 5
502 542 5
503 504 5
503 543 1
504 505 3
504 544 3
505 506 2
505 545 5
506 507 2
506 546 2
507 508 2
507 547 2
508 509 1
508 548 4
509 510 1
509 549 1
510 511 2
510 550 4
511 512 4
511 551 5
512 513 1
512 552 2
513 514 3
513 553 1
514 515 4
514 554 3
515 516 3
515 555 2
516 517 3
516 556 1
517 518 3
517 557 1
518 519 2
518 558 5
519 520 5
519 559 3
520 560 2
521 522 3
521 561 3
522 523 3
522 562 2
523 524 1
523 563 1
524 525 5
524 564 2
525 526 2
525 565 5
526 527 5
526 566 5
527 528 1
527 567 1
528 529 4
528 568 5
529 530 2
529 569 4
530 531 3
530 570 4
531 532 2
531 571 3
532 533 1
532 572 2
533 534 3
533 573 5
534 535 3
534 574 4
535 536 1
535 575 5
536 537 1
536 576 4
537 538 1
537 577 1
538 539 4
538 578 5
539 540 4
539 579 3
540 541 3
540 580 3
541 542 3
541 581 5
542 543 5
542 582 2
543 544 5
543 583 2
544 545 1
544 584 5
545 546 3
545 585 3
546 547 1
546 586 5
547 548 2
547 587 4
548 549 5
548 588 5
549 550 5
549 589 2
550 551 4
550 590 2
551 552 5
551 591 2
552 553 3
552 592 3
553 554 5
553 593 4
554 555 2
554 594 5
555 556 4
555 595 3
556 557 5
556 596 1
557 558 3
557 597 2
558 559 2
558 598 5
559 560 5
559 599 4
560 600 5
561 562 5
561 601 3
562 563 3
562 602 3
563 564 2
563 603 1
564 565 3
564 604 3
565 566 2
565 605 2
566 567 3
566 606 5
567 568 4
567 607 4
568 569 4
568 608 3
569 570 1
569 609 2
570 571 5
570 610 2
571 572 2
571 611 4
572 573 5
572 612 5
573 574 2
573 613 2
574 575 4
574 614 1
575 576 4
575 615 4
576 577 4
576 616 5
577 578 2
577 617 5
578 579 5
578 618 1
579 580 1
579 619 1
580 581 3
580 620 2
581 582 5
581 621 2
582 583 3
582 622 3
583 584 4
583 623 1
584 585 3
584 624 4
585 586 4
585 625 4
586 587 5
586 626 1
587 588 5
587 627 3
588 589 5
588 628 5
589 590 1
589 629 1
590 591 2
590 630 2
591 592 1
591 631 2
592 593 4
592 632 1
593 594 1
593 633 5
594 595 4
594 634 1
595 596 5
595 635 5
596 597 1
596 636 2
597 598 1
597 637 1
598 599 5
598 638 4
599 600 4
599 639 1
600 640 4
601 602 4
601 641 1
602 603 3
602 642 1
603 604 2
603 643 4
604 605 4
604 644 1
605 606 1
605 645 4
606 607 1
606 646 5
607 608 3
607 647 4
608 609 4
608 648 1
609 610 1
609 649 2
610 611 1
610 650 1
611 612 4
611 651 3
612 613 5
612 652 5
613 614 3
613 653 1
614 615 2
614 654 5
615 616 3
615 655 3
616 617 4
616 656 4
617 618 3
617 657 1
618 619 1
618 658 4
619 620 2
619 659 5
620 621 2
620 660 1
621 622 5
621 661 5
622 623 1
622 662 4
623 624 2
623 663 1
624 625 4
624 664 3
625 626 4
625 665 5
626 627 2
626 666 3
627 628 4
627 667 2
628 629 1
628 668 3
629 630 3
629 669 2
630 631 3
630 670 1
631 632 3
631 671 1
632 633 2
632 672 4
633 634 3
633 673 3
634 635 4
634 674 2
635 636 3
635 675 4
636 637 3
636 676 3
637 638 3
637 677 2
638 639 5
638 678 1
639 640 1
639 679 2
640 680 4
641 642 3
641 681 3
642 643 4
642 682 1
643 644 1
643 683 4
644 645 3
644 684 2
645 646 3
645 685 5
646 647 5
646 686 2
647 648 5
647 687 5
648 649 5
648 688 2
649 650 4
649 689 5
650 651 5
650 690 2
651 652 5
651 691 3
652 653 1
652 692 4
653 654 2
653 693 3
654 655 2
654 694 1
655 656 3
655 695 5
656 657 5
656 696 4
657 658 4
657 697 2
658 659 5
658 698 4
659 660 5
659 699 2
660 661 5
660 700 3
661 662 1
661 701 1
662 663 5
662 702 4
663 664 1
663 703 4
664 665 3
664 704 4
665 666 5
665 705 2
666 667 1
666 706 4
667 668 1
667 707 5
668 669 3
668 708 2
669 670 5
669 709 3
670 671 3
670 710 4
671 672 2
671 711 1
672 673 5
672 712 4
673 674 5
673 713 4
674 675 3
674 714 5
675 676 2
675 715 3
676 677 3
676 716 3
677 678 2
677 717 1
678 679 3
678 718 3
679 680 3
679 719 3
680 720 1
681 682 4
681 721 4
682 683 1
682 722 1
683 684 2
683 723 2
684 685 1
684 724 2
685 686 1
685 725 5
686 687 2
686 726 5
687 688 3
687 727 5
688 689 3
688 728 4
689 690 3
689 729 2
690 691 5
690 730 4
691 692 3
691 731 1
692 693 5
692 732 5
693 694 4
693 733 2
694 695 1
694 734 2
695 696 1
695 735 2
696 697 4
696 736 1
697 698 2
697 737 5
698 699 2
698 738 3
699 700 4
699 739 3
700 701 4
700 740 5
701 702 1
701 741 4
702 703 3
702 742 1
703 704 3
703 743 5
704 705 1
704 744 2
705 706 2
705 745 3
706 707 3
706 746 5
707 708 1
707 747 4
708 709 5
708 748 3
709 710 4
709 749 1
710 711 3
710 750 3
711 712 2
711 751 3
712 713 3
712 752 5
713 714 2
713 753 5
714 715 5
714 754 2
715 716 4
715 755 1
716 717 1
716 756 4
717 718 3
717 757 5
718 719 2
718 758 3
719 720 2
719 759 2
720 760 3
721 722 2
721 761 4
722 723 2
722 762 3
723 724 1
723 763 3
724 725 4
724 764 4
725 726 5
725 765 5
726 727 3
726 766 3
727 728 4
727 767 5
728 729 3
728 768 3
729 730 1
729 769 1
730 731 5
730 770 5
731 732 4
731 771 3
732 733 1
732 772 1
733 734 4
733 773 1
734 735 3
734 774 1
735 736 1
735 775 2
736 737 5
736 776 2
737 738 3
737 777 1
738 739 1
738 778 2
739 740 5
739 779 4
740 741 4
740 780 3
741 742 1
741 781 5
742 743 2
742 782 5
743 744 3
743 783 2
744 745 5
744 784 2
745 746 3
745 785 2
746 747 3
746 786 5
747 748 5
747 787 2
748 749 2
748 788 3
749 750 5
749 789 5
750 751 1
750 790 4
751 752 1
751 791 1
752 753 5
752 792 4
753 754 1
753 793 5
754 755 2
754 794 4
755 756 3
755 795 1
756 757 1
756 796 1
757 758 2
757 797 5
758 759 2
758 798 4
759 760 3
759 799 5
760 800 3
761 762 2
761 801 1
762 763 1
762 802 4
763 764 5
763 803 1
764 765 4
764 804 2
765 766 2
765 805 1
766 767 3
766 806 3
767 768 1
767 807 1
768 769 1
768 808 5
769 770 1
769 809 1
770 771 5
770 810 5
771 772 5
771 811 4
772 773 4
772 812 1
773 774 5
773 813 3
774 775 4
774 814 5
775 776 2
775 815 4
776 777 2
776 816 4
777 778 1
777 817 2
778 779 5
778 818 5
779 780 2
779 819 2
780 781 4
780 820 5
781 782 2
781 821 2
782 783 3
782 822 5
783 784 5
783 823 4
784 785 3
784 824 1
785 786 4
785 825 2
786 787 3
786 826 4
787 788 3
787 827 2
788 789 5
788 828 2
789 790 4
789 829 3
790 791 4
790 830 2
791 792 4
791 831 5
792 793 5
792 832 1
793 794 3
793 833 3
794 795 2
794 834 3
795 796 1
795 835 3
796 797 4
796 836 3
797 798 1
797 837 4
798 799 3
798 838 3
799 800 4
799 839 3
800 840 2
801 802 1
801 841 2
802 803 1
802 842 4
803 804 5
803 843 4
804 805 1
804 844 2
805 806 4
805 845 5
806 807 1
806 846 1
807 808 5
807 847 1
808 809 2
808 848 5
809 810 4
809 849 4
810 811 1
810 850 4
811 812 1
811 851 5
812 813 4
812 852 3
813 814 1
813 853 4
814 815 2
814 854 4
815 816 1
815 855 2
816 817 2
816 856 5
817 818 3
817 857 4
818 819 2
818 858 4
819 820 5
819 859 4
820 821 1
820 860 2
821 822 4
821 861 4
822 823 3
822 862 4
823 824 4
823 863 1
824 825 4
824 864 1
825 826 4
825 865 1
826 827 4
826 866 2
827 828 2
827 867 2
828 829 4
828 868 5
829 830 3
829 869 4
830 831 3
830 870 1
831 832 3
831 871 3
832 833 4
832 872 4
833 834 2
833 873 1
834 835 4
834 874 1
835 836 4
835 875 3
836 837 1
836 876 4
837 838 2
837 877 5
838 839 5
838 878 2
839 840 1
839 879 1
840 880 2
841 842 5
841 881 3
842 843 1
842 882 5
843 844 2
843 883 4
844 845 2
844 884 3
845 846 5
845 885 3
846 847 4
846 886 4
847 848 3
847 887 4
848 849 2
848 888 1
849 850 5
849 889 2
850 851 5
850 890 2
851 852 3
851 891 1
852 853 2
852 892 4
853 854 1
853 893 3
854 855 2
854 894 5
855 856 5
855 895 5
856 857 4
856 896 2
857 858 1
857 897 2
858 859 4
858 898 2
859 860 5
859 899 4
860 861 4
860 900 4
861 862 4
861 901 5
862 863 5
862 902 3
863 864 2
863 903 1
864 865 4
864 904 2
865 866 4
865 905 4
866 867 1
866 906 2
867 868 2
867 907 2
868 869 5
868 908 3
869 870 5
869 909 2
870 871 1
870 910 4
871 872 1
871 911 5
872 873 2
872 912 3
873 874 1
873 913 1
874 875 5
874 914 1
875 876 5
875 915 1
876 877 2
876 916 4
877 878 3
877 917 1
878 879 5
878 918 1
879 880 1
879 919 3
880 920 4
881 882 4
881 921 5
882 883 3
882 922 2
883 884 4
883 923 1
884 885 1
884 924 1
885 886 1
885 925 2
886 887 2
886 926 3
887 888 5
887 927 4
888 889 5
888 928 4
889 890 1
889 929 5
890 891 4
890 930 5
891 892 1
891 931 2
892 893 4
892 932 3
893 894 4
893 933 5
894 895 1
894 934 2
895 896 1
895 935 3
896 897 3
896 936 1
897 898 3
897 937 3
898 899 3
898 938 1
899 900 2
899 939 5
900 901 5
900 940 4
901 902 5
901 941 3
902 903 3
902 942 2
903 904 1
903 943 1
904 905 3
904 944 1
905 906 4
905 945 1
906 907 1
906 946 1
907 908 4
907 947 1
908 909 3
908 948 1
909 910 4
909 949 2
910 911 1
910 950 2
911 912 4
911 951 1
912 913 3
912 952 1
913 914 2
913 953 4
914 915 2
914 954 4
915 916 4
915 955 3
916 917 5
916 956 5
917 918 3
917 957 2
918 919 3
918 958 3
919 920 1
919 959 5
920 960 2
921 922 5
921 961 2
922 923 4
922 962 2
923 924 3
923 963 2
924 925 1
924 964 3
925 926 3
925 965 4
926 927 3
926 966 4
927 928 5
927 967 5
928 929 1
928 968 1
929 930 4
929 969 5
930 931 4
930 970 5
931 932 5
931 971 5
932 933 4
932 972 1
933 934 3
933 973 3
934 935 1
934 974 3
935 936 1
935 975 3
936 937 4
936 976 2
937 938 3
937 977 5
938 939 4
938 978 1
939 940 5
939 979 5
940 941 3
940 980 2
941 942 5
941 981 2
942 943 1
942 982 3
943 944 1
943 983 1
944 945 3
944 984 4
945 946 1
945 985 2
946 947 3
946 986 1
947 948 3
947 987 2
948 949 4
948 988 1
949 950 3
949 989 4
950 951 4
950 990 1
951 952 4
951 991 1
952 953 4
952 992 1
953 954 2
953 993 4
954 955 5
954 994 5
955 956 3
955 995 4
956 957 3
956 996 5
957 958 2
957 997 3
958 959 1
958 998 4
959 960 5
959 999 1
960 1000 3
961 962 1
961 1001 2
962 963 3
962 1002 3
963 964 3
963 1003 2
964 965 3
964 1004 2
965 966 1
965 1005 3
966 967 1
966 1006 3
967 968 3
967 1007 2
968 969 4
968 1008 5
969 970 3
969 1009 4
970 971 5
970 1010 5
971 972 2
971 1011 4
972 973 3
972 1012 3
973 974 1
973 1013 1
974 975 1
974 1014 4
975 976 5
975 1015 4
976 977 4
976 1016 3
977 978 1
977 1017 1
978 979 4
978 1018 2
979 980 1
979 1019 2
980 981 1
980 1020 3
981 982 1
981 1021 5
982 983 5
982 1022 4
983 984 1
983 1023 1
984 985 2
984 1024 3
985 986 1
985 1025 5
986 987 5
986 1026 4
987 988 4
987 1027 5
988 989 2
988 1028 1
989 990 2
989 1029 4
990 991 1
990 1030 3
991 992 4
991 1031 3
992 993 2
992 1032 1
993 994 5
993 1033 1
994 995 3
994 1034 2
995 996 3
995 1035 5
996 997 3
996 1036 5
997 998 4
997 1037 4
998 999 3
998 1038 3
999 1000 3
999 1039 5
1000 1040 1
1001 1002 2
1001 1041 3
1002 1003 2
1002 1042 1
1003 1004 5
1003 1043 2
1004 1005 3
1004 1044 1
1005 1006 2
1005 1045 4
1006 1007 1
1006 1046 1
1007 1008 4
1007 1047 5
1008 1009 1
1008 1048 2
1009 1010 4
1009 1049 3
1010 1011 5
1010 1050 1
1011 1012 2
1011 1051 4
1012 1013 3
1012 1052 5
1013 1014 3
1013 1053 5
1014 1015 1
1014 1054 2
1015 1016 1
1015 1055 2
1016 1017 2
1016 1056 1
1017 1018 1
1017 1057 3
1018 1019 5
1018 1058 1
1019 1020 2
1019 1059 1
1020 1021 5
1020 1060 3
1021 1022 4
1021 1061 1
1022 1023 3
1022 1062 3
1023 1024 2
1023 1063 3
1024 1025 5
1024 1064 2
1025 1026 4
1025 1065 1
1026 1027 5
1026 1066 1
1027 1028 5
1027 1067 2
1028 1029 5
1028 1068 4
1029 1030 3
1029 1069 4
1030 1031 1
1030 1070 1
1031 1032 2
1031 1071 3
1032 1033 3
1032 1072 3
1033 1034 3
1033 1073 1
1034 1035 3
1034 1074 1
1035 1036 5
1035 1075 4
1036 1037 4
1036 1076 4
1037 1038 4
1037 1077 2
1038 1039 1
1038 1078 4
1039 1040 4
1039 1079 3
1040 1080 5
1041 1042 1
1041 1081 2
1042 1043 5
1042 1082 2
1043 1044 2
1043 1083 3
1044 1045 2
1044 1084 4
1045 1046 3
1045 1085 2
1046 1047 5
1046 1086 1
1047 1048 5
1047 1087 4
1048 1049 5
1048 1088 4
1049 1050 5
1049 1089 2
1050 1051 4
1050 1090 3
1051 1052 5
1051 1091 1
1052 1053 2
1052 1092 4
1053 1054 4
1053 1093 3
1054 1055 2
1054 1094 2
1055 1056 4
1055 1095 5
1056 1057 4
1056 1096 4
1057 1058 4
1057 1097 2
1058 1059 4
1058 1098 5
1059 1060 2
1059 1099 4
1060 1061 3
1060 1100 5
1061 1062 2
1061 1101 4
1062 1063 2
1062 1102 2
1063 1064 3
1063 1103 5
1064 1065 2
1064 1104 4
1065 1066 5
1065 1105 3
1066 1067 4
1066 1106 4
1067 1068 3
1067 1107 5
1068 1069 2
1068 1108 1
1069 1070 5
1069 1109 5
1070 1071 2
1070 1110 5
1071 1072 1
1071 1111 1
1072 1073 1
1072 1112 4
1073 1074 2
1073 1113 2
1074 1075 3
1074 1114 1
1075 1076 5
1075 1115 2
1076 1077 3
1076 1116 4
1077 1078 3
1077 1117 3
1078 1079 5
1078 1118 4
1079 1080 1
1079 1119 4
1080 1120 4
1081 1082 1
1081 1121 2
1082 1083 5
1082 1122 5
1083 1084 5
1083 1123 4
1084 1085 1
1084 1124 3
1085 1086 1
1085 1125 2
1086 1087 2
1086 1126 2
1087 1088 5
1087 1127 3
1088 1089 1
1088 1128 2
1089 1090 2
1089 1129 1
1090 1091 4
1090 1130 5
1091 1092 4
1091 1131 2
1092 1093 4
1092 1132 3
1093 1094 3
1093 1133 4
1094 1095 5
1094 1134 4
1095 1096 3
1095 1135 2
1096 1097 2
1096 1136 2
1097 1098 2
1097 1137 1
1098 1099 4
1098 1138 3
1099 1100 5
1099 1139 2
1100 1101 3
1100 1140 2
1101 1102 1
1101 1141 4
1102 1103 4
1102 1142 2
1103 1104 2
1103 1143 2
1104 1105 4
1104 1144 4
1105 1106 5
1105 1145 3
1106 1107 3
1106 1146 4
1107 1108 1
1107 1147 2
1108 1109 4
1108 1148 5
1109 1110 3
1109 1149 3
1110 1111 1
1110 1150 3
1111 1112 5
1111 1151 2
1112 1113 4
1112 1152 4
1113 1114 3
1113 1153 1
1114 1115 1
1114 1154 3
1115 1116 5
1115 1155 4
1116 1117 5
1116 1156 1
1117 1118 5
1117 1157 3
1118 1119 1
1118 1158 1
1119 1120 2
1119 1159 2
1120 1160 1
1121 1122 4
1121 1161 3
1122 1123 2
1122 1162 1
1123 1124 3
1123 1163 1
1124 1125 5
1124 1164 1
1125 1126 2
1125 1165 2
1126 1127 3
1126 1166 3
1127 1128 4
1127 1167 3
1128 1129 3
1128 1168 2
1129 1130 4
1129 1169 2
1130 1131 5
1130 1170 5
1131 1132 2
1131 1171 3
1132 1133 4
1132 1172 4
1133 1134 4
1133 1173 5
1134 1135 2
1134 1174 5
1135 1136 5
1135 1175 4
1136 1137 3
1136 1176 1
1137 1138 4
1137 1177 1
1138 1139 5
1138 1178 2
1139 1140 4
1139 1179 5
1140 1141 3
1140 1180 4
1141 1142 2
1141 1181 1
1142 1143 1
1142 1182 1
1143 1144 1
1143 1183 1
1144 1145 3
1144 1184 3
1145 1146 4
1145 1185 3
1146 1147 2
1146 1186 2
1147 1148 3
1147 1187 3
1148 1149 2
1148 1188 3
1149 1150 4
1149 1189 4
1150 1151 3
1150 1190 1
1151 1152 5
1151 1191 2
1152 1153 3
1152 1192 5
1153 1154 4
1153 1193 3
1154 1155 3
1154 1194 5
1155 1156 2
1155 1195 5
1156 1157 3
1156 1196 2
1157 1158 5
1157 1197 1
1158 1159 1
1158 1198 5
1159 1160 2
1159 1199 1
1160 1200 4
1161 1162 1
1161 1201 4
1162 1163 2
1162 1202 5
1163 1164 5
1163 1203 1
1164 1165 5
1164 1204 2
1165 1166 3
1165 1205 1
1166 1167 5
1166 1206 1
1167 1168 2
1167 1207 4
1168 1169 4
1168 1208 2
1169 1170 1
1169 1209 1
1170 1171 1
1170 1210 3
1171 1172 5
1171 1211 1
1172 1173 5
1172 1212 4
1173 1174 4
1173 1213 5
1174 1175 5
1174 1214 1
1175 1176 1
1175 1215 1
1176 1177 4
1176 1216 2
1177 1178 2
1177 1217 1
1178 1179 2
1178 1218 3
1179 1180 1
1179 1219 5
1180 1181 2
1180 1220 3
1181 1182 2
1181 1221 3
1182 1183 5
1182 1222 1
1183 1184 2
1183 1223 4
1184 1185 3
1184 1224 4
1185 1186 2
1185 1225 2
1186 1187 4
1186 1226 4
1187 1188 4
1187 1227 1
1188 1189 1
1188 1228 5
1189 1190 1
1189 1229 5
1190 1191 3
1190 1230 4
1191 1192 2
1191 1231 3
1192 1193 1
1192 1232 4
1193 1194 5
1193 1233 2
1194 1195 5
1194 1234 5
1195 1196 2
1195 1235 3
1196 1197 2
1196 1236 3
1197 1198 2
1197 1237 3
1198 1199 5
1198 1238 4
1199 1200 1
1199 1239 3
1200 1240 4
1201 1202 3
1201 1241 2
1202 1203 3
1202 1242 2
1203 1204 2
1203 1243 1
1204 1205 2
1204 1244 4
1205 1206 3
1205 1245 5
1206 1207 2
1206 1246 4
1207 1208 3
1207 1247 5
1208 1209 5
1208 1248 3
1209 1210 4
1209 1249 2
1210 1211 4
1210 1250 2
1211 1212 2
1211 1251 4
1212 1213 3
1212 1252 3
1213 1214 5
1213 1253 3
1214 1215 5
1214 1254 2
1215 1216 5
1215 1255 3
1216 1217 1
1216 1256 4
1217 1218 3
1217 1257 2
1218 1219 3
1218 1258 3
1219 1220 2
1219 1259 1
1220 1221 4
1220 1260 1
1221 1222 3
1221 1261 1
1222 1223 1
1222 1262 1
1223 1224 5
1223 1263 3
1224 1225 2
1224 1264 5
1225 1226 3
1225 1265 2
1226 1227 3
1226 1266 3
1227 1228 4
1227 1267 3
1228 1229 2
1228 1268 3
1229 1230 5
1229 1269 5
1230 1231 3
1230 1270 2
1231 1232 5
1231 1271 4
1232 1233 4
1232 1272 2
1233 1234 4
1233 1273 3
1234 1235 1
1234 1274 3
1235 1236 5
1235 1275 2
1236 1237 4
1236 1276 1
1237 1238 2
1237 1277 5
1238 1239 5
1238 1278 3
1239 1240 1
1239 1279 3
1240 1280 3
1241 1242 3
1241 1281 3
1242 1243 2
1242 1282 5
1243 1244 2
1243 1283 4
1244 1245 3
1244 1284 1
1245 1246 4
1245 1285 5
1246 1247 5
1246 1286 5
1247 1248 2
1247 1287 3
1248 1249 2
1248 1288 1
1249 1250 3
1249 1289 2
1250 1251 4
1250 1290 2
1251 1252 1
1251 1291 5
1252 1253 2
1252 1292 5
1253 1254 5
1253 1293 1
1254 1255 5
1254 1294 4
1255 1256 3
1255 1295 1
1256 1257 1
1256 1296 1
1257 1258 3
1257 1297 1
1258 1259 4
1258 1298 4
1259 1260 3
1259 1299 1
1260 1261 2
1260 1300 2
1261 1262 5
1261 1301 5
1262 1263 3
1262 1302 4
1263 1264 1
1263 1303 1
1264 1265 3
1264 1304 4
1265 1266 3
1265 1305 3
1266 1267 1
1266 1306 5
1267 1268 5
1267 1307 1
1268 1269 1
1268 1308 2
1269 1270 4
1269 1309 2
1270 1271 2
1270 1310 1
1271 1272 2
1271 1311 4
1272 1273 2
1272 1312 3
1273 1274 2
1273 1313 2
1274 1275 3
1274 1314 4
1275 1276 5
1275 1315 4
1276 1277 5
1276 1316 4
1277 1278 3
1277 1317 4
1278 1279 2
1278 1318 2
1279 1280 4
1279 1319 3
1280 1320 2
1281 1282 5
1281 1321 5
1282 1283 2
1282 1322 3
1283 1284 2
1283 1323 4
1284 1285 3
1284 1324 2
1285 1286 2
1285 1325 2
1286 1287 2
1286 1326 3
1287 1288 1
1287 1327 3
1288 1289 1
1288 1328 1
1289 1290 1
1289 1329 4
1290 1291 4
1290 1330 2
1291 1292 4
1291 1331 5
1292 1293 1
1292 1332 2
1293 1294 2
1293 1333 2
1294 1295 2
1294 1334 5
1295 1296 4
1295 1335 4
1296 1297 4
1296 1336 3
1297 1298 1
1297 1337 1
1298 1299 5
1298 1338 4
1299 1300 5
1299 1339 1
1300 1301 1
1300 1340 1
1301 1302 1
1301 1341 4
1302 1303 1
1302 1342 4
1303 1304 3
1303 1343 5
1304 1305 4
1304 1344 1
1305 1306 4
1305 1345 2
1306 1307 4
1306 1346 1
1307 1308 3
1307 1347 4
1308 1309 1
1308 1348 2
1309 1310 3
1309 1349 5
1310 1311 3
1310 1350 1
1311 1312 1
1311 1351 1
1312 1313 1
1312 1352 3
1313 1314 3
1313 1353 1
1314 1315 4
1314 1354 3
1315 1316 5
1315 1355 5
1316 1317 5
1316 1356 2
1317 1318 2
1317 1357 5
1318 1319 3
1318 1358 3
1319 1320 4
1319 1359 3
1320 1360 5
1321 1322 5
1321 1361 4
1322 1323 5
1322 1362 1
1323 1324 4
1323 1363 4
1324 1325 5
1324 1364 5
1325 1326 3
1325 1365 1
1326 1327 3
1326 1366 4
1327 1328 2
1327 1367 1
1328 1329 5
1328 1368 2
1329 1330 3
1329 1369 4
1330 1331 2
1330 1370 2
1331 1332 1
1331 1371 2
1332 1333 2
1332 1372 4
1333 1334 5
1333 1373 2
1334 1335 3
1334 1374 3
1335 1336 2
1335 1375 4
1336 1337 4
1336 1376 3
1337 1338 3
1337 1377 5
1338 1339 4
1338 1378 5
1339 1340 3
1339 1379 3
1340 1341 4
1340 1380 1
1341 1342 2
1341 1381 5
1342 1343 1
1342 1382 4
1343 1344 3
1343 1383 5
1344 1345 4
1344 1384 5
1345 1346 3
1345 1385 4
1346 1347 4
1346 1386 1
1347 1348 5
1347 1387 5
1348 1349 5
1348 1388 4
1349 1350 3
1349 1389 2
1350 1351 3
1350 1390 1
1351 1352 2
1351 1391 5
1352 1353 3
1352 1392 5
1353 1354 1
1353 1393 2
1354 1355 2
1354 1394 1
1355 1356 5
1355 1395 5
1356 1357 1
1356 1396 3
1357 1358 1
1357 1397 4
1358 1359 1
1358 1398 4
1359 1360 3
1359 1399 3
1360 1400 4
1361 1362 4
1361 1401 4
1362 1363 3
1362 1402 1
1363 1364 1
1363 1403 3
1364 1365 3
1364 1404 3
1365 1366 4
1365 1405 4
1366 1367 2
1366 1406 3
1367 1368 2
1367 1407 2
1368 1369 5
1368 1408 2
1369 1370 1
1369 1409 2
1370 1371 1
1370 1410 2
1371 1372 5
1371 1411 4
1372 1373 5
1372 1412 5
1373 1374 2
1373 1413 1
1374 1375 4
1374 1414 3
1375 1376 2
1375 1415 3
1376 1377 2
1376 1416 3
1377 1378 5
1377 1417 1
1378 1379 1
1378 1418 3
1379 1380 2
1379 1419 3
1380 1381 2
1380 1420 3
1381 1382 5
1381 1421 1
1382 1383 3
1382 1422 2
1383 1384 4
1383 1423 3
1384 1385 1
1384 1424 4
1385 1386 3
1385 1425 5
1386 1387 5
1386 1426 2
1387 1388 4
1387 1427 1
1388 1389 3
1388 1428 5
1389 1390 3
1389 1429 3
1390 1391 2
1390 1430 5
1391 1392 5
1391 1431 5
1392 1393 1
1392 1432 2
1393 1394 4
1393 1433 2
1394 1395 1
1394 1434 3
1395 1396 4
1395 1435 4
1396 1397 1
1396 1436 3
1397 1398 3
1397 1437 5
1398 1399 5
1398 1438 3
1399 1400 5
1399 1439 5
1400 1440 2
1401 1402 5
1401 1441 5
1402 1403 3
1402 1442 5
1403 1404 4
1403 1443 1
1404 1405 2
1404 1444 3
1405 1406 5
1405 1445 3
1406 1407 3
1406 1446 4
1407 1408 5
1407 1447 3
1408 1409 1
1408 1448 3
1409 1410 3
1409 1449 3
1410 1411 5
1410 1450 4
1411 1412 3
1411 1451 1
1412 1413 4
1412 1452 1
1413 1414 4
1413 1453 5
1414 1415 1
1414 1454 2
1415 1416 3
1415 1455 1
1416 1417 3
1416 1456 4
1417 1418 4
1417 1457 3
1418 1419 4
1418 1458 5
1419 1420 1
1419 1459 5
1420 1421 4
1420 1460 2
1421 1422 3
1421 1461 2
1422 1423 3
1422 1462 2
1423 1424 5
1423 1463 3
1424 1425 5
1424 1464 4
1425 1426 4
1425 1465 3
1426 1427 2
1426 1466 3
1427 1428 1
1427 1467 2
1428 1429 1
1428 1468 2
1429 1430 2
1429 1469 1
1430 1431 1
1430 1470 4
1431 1432 1
1431 1471 5
1432 1433 5
1432 1472 1
1433 1434 4
1433 1473 2
1434 1435 3
1434 1474 1
1435 1436 2
1435 1475 2
1436 1437 2
1436 1476 1
1437 1438 3
1437 1477 3
1438 1439 4
1438 1478 1
1439 1440 5
1439 1479 5
1440 1480 1
1441 1442 4
1441 1481 1
1442 1443 1
1442 1482 2
1443 1444 5
1443 1483 5
1444 1445 4
1444 1484 5
1445 1446 2
1445 1485 1
1446 1447 4
1446 1486 2
1447 1448 5
1447 1487 3
1448 1449 5
1448 1488 2
1449 1450 5
1449 1489 2
1450 1451 5
1450 1490 2
1451 1452 3
1451 1491 3
1452 1453 2
1452 1492 4
1453 1454 1
1453 1493 5
1454 1455 5
1454 1494 3
1455 1456 2
1455 1495 2
1456 1457 2
1456 1496 1
1457 1458 4
1457 1497 3
1458 1459 2
1458 1498 2
1459 1460 2
1459 1499 4
1460 1461 2
1460 1500 1
1461 1462 2
1461 1501 4
1462 1463 2
1462 1502 2
1463 1464 4
1463 1503 5
1464 1465 3
1464 1504 4
1465 1466 2
1465 1505 3
1466 1467 3
1466 1506 3
1467 1468 1
1467 1507 4
1468 1469 2
1468 1508 2
1469 1470 2
1469 1509 1
1470 1471 1
1470 1510 2
1471 1472 4
1471 1511 5
1472 1473 2
1472 1512 2
1473 1474 5
1473 1513 5
1474 1475 4
1474 1514 5
1475 1476 2
1475 1515 3
1476 1477 3
1476 1516 4
1477 1478 1
1477 1517 3
1478 1479 2
1478 1518 5
1479 1480 5
1479 1519 5
1480 1520 4
1481 1482 3
1481 1521 4
1482 1483 5
1482 1522 4
1483 1484 2
1483 1523 5
1484 1485 4
1484 1524 2
1485 1486 2
1485 1525 3
1486 1487 3
1486 1526 3
1487 1488 4
1487 1527 3
1488 1489 4
1488 1528 4
1489 1490 2
1489 1529 5
1490 1491 4
1490 1530 1
1491 1492 1
1491 1531 3
1492 1493 5
1492 1532 5
1493 1494 5
1493 1533 5
1494 1495 3
1494 1534 3
1495 1496 4
1495 1535 4
1496 1497 2
1496 1536 4
1497 1498 3
1497 1537 4
1498 1499 2
1498 1538 3
1499 1500 1
1499 1539 1
1500 1501 3
1500 1540 1
1501 1502 4
1501 1541 3
1502 1503 2
1502 1542 5
1503 1504 2
1503 1543 3
1504 1505 3
1504 1544 4
1505 1506 2
1505 1545 4
1506 1507 2
1506 1546 2
1507 1508 4
1507 1547 5
1508 1509 5
1508 1548 3
1509 1510 1
1509 1549 3
1510 1511 5
1510 1550 4
1511 1512 2
1511 1551 1
1512 1513 3
1512 1552 4
1513 1514 4
1513 1553 2
1514 1515 4
1514 1554 5
1515 1516 3
1515 1555 4
1516 1517 5
1516 1556 4
1517 1518 5
1517 1557 1
1518 1519 3
1518 1558 5
1519 1520 3
1519 1559 5
1520 1560 1
1521 1522 5
1521 1561 5
1522 1523 4
1522 1562 2
1523 1524 5
1523 1563 4
1524 1525 1
1524 1564 3
1525 1526 2
1525 1565 1
1526 1527 3
1526 1566 4
1527 1528 1
1527 1567 5
1528 1529 1
1528 1568 2
1529 1530 2
1529 1569 3
1530 1531 1
1530 1570 4
1531 1532 2
1531 1571 1
1532 1533 4
1532 1572 5
1533 1534 2
1533 1573 3
1534 1535 5
1534 1574 1
1535 1536 4
1535 1575 3
1536 1537 2
1536 1576 3
1537 1538 2
1537 1577 1
1538 1539 2
1538 1578 1
1539 1540 3
1539 1579 1
1540 1541 5
1540 1580 5
1541 1542 5
1541 1581 3
1542 1543 5
1542 1582 4
1543 1544 5
1543 1583 1
1544 1545 3
1544 1584 3
1545 1546 2
1545 1585 1
1546 1547 3
1546 1586 1
1547 1548 3
1547 1587 2
1548 1549 1
1548 1588 3
1549 1550 3
1549 1589 1
1550 1551 1
1550 1590 5
1551 1552 5
1551 1591 5
1552 1553 5
1552 1592 3
1553 1554 2
1553 1593 3
1554 1555 5
1554 1594 5
1555 1556 4
1555 1595 1
1556 1557 3
1556 1596 5
1557 1558 1
1557 1597 1
1558 1559 5
1558 1598 4
1559 1560 1
1559 1599 1
1560 1600 3
1561 1562 2
1562 1563 4
1563 1564 4
1564 1565 4
1565 1566 3
1566 1567 1
1567 1568 5
1568 1569 5
1569 1570 2
1570 1571 1
1571 1572 5
1572 1573 3
1573 1574 1
1574 1575 4
1575 1576 4
1576 1577 5
1577 1578 5
1578 1579 4
1579 1580 2
1580 1581 5
1581 1582 1
1582 1583 5
1583 1584 1
1584 1585 2
1585 1586 3
1586 1587 4
1587 1588 4
1588 1589 1
1589 1590 3
1590 1591 1
1591 1592 1
1592 1593 3
1593 1594 1
1594 1595 3
1595 1596 3
1596 1597 3
1597 1598 3
1598 1599 2
1599 1600 3
1 1561 4
2 1562 2
3 1563 5
4 1564 3
5 1565 2
6 1566 5
7 1567 3
8 1568 5
9 1569 2
10 1570 3
11 1571 4
12 1572 4
13 1573 1
14 1574 3
15 1575 5
16 1576 2
17 1577 2
18 1578 5
19 1579 4
20 1580 5
21 1581 5
22 1582 1
23 1583 1
24 1584 1
25 1585 3
26 1586 5
27 1587 5
28 1588 4
29 1589 3
30 1590 2
31 1591 4
32 1592 2
33 1593 2
34 1594 3
35 1595 3
36 1596 4
37 1597 3
38 1598 5
39 1599 2
40 1600 1
1 40 5
41 80 3
81 120 5
121 160 4
161 200 4
201 240 4
241 280 1
281 320 4
321 360 3
361 400 3
401 440 2
441 480 4
481 520 4
521 560 5
561 600 2
601 640 1
641 680 1
681 720 4
721 760 1
761 800 2
801 840 3
841 880 3
881 920 2
921 960 1
961 1000 4
1001 1040 3
1041 1080 3
1081 1120 4
1121 1160 5
1161 1200 2
1201 1240 4
1241 1280 1
1281 1320 2
1321 1360 5
1361 1400 4
1401 1440 3
1441 1480 5
1481 1520 3
1521 1560 2
1561 1600 1
